14° run output:
{
    "Function": "ClusterA500.tsp",
    "Problem dimension": [
        328,
        99,
        133,
        158,
        296,
        208,
        363,
        209,
        318,
        486,
        103,
        261,
        28,
        290,
        185,
        213,
        128,
        147,
        357,
        406,
        2,
        233,
        411,
        477,
        407,
        345,
        346,
        475,
        385,
        419,
        386,
        489,
        478,
        124,
        319,
        484,
        144,
        454,
        194,
        16,
        57,
        136,
        294,
        451,
        380,
        311,
        89,
        48,
        14,
        87,
        264,
        40,
        379,
        91,
        365,
        331,
        236,
        481,
        19,
        445,
        171,
        405,
        257,
        426,
        382,
        199,
        191,
        428,
        421,
        252,
        39,
        491,
        226,
        272,
        493,
        58,
        127,
        157,
        399,
        388,
        216,
        499,
        72,
        322,
        67,
        325,
        258,
        46,
        277,
        162,
        472,
        283,
        12,
        424,
        156,
        431,
        358,
        202,
        241,
        338,
        5,
        18,
        463,
        50,
        45,
        321,
        356,
        206,
        223,
        251,
        139,
        398,
        227,
        6,
        256,
        224,
        432,
        329,
        242,
        195,
        164,
        54,
        165,
        114,
        367,
        7,
        78,
        196,
        137,
        97,
        184,
        166,
        267,
        497,
        181,
        418,
        235,
        265,
        105,
        373,
        153,
        480,
        295,
        93,
        117,
        141,
        106,
        423,
        425,
        483,
        417,
        479,
        152,
        129,
        401,
        118,
        359,
        455,
        297,
        333,
        218,
        102,
        313,
        17,
        81,
        113,
        320,
        371,
        291,
        74,
        435,
        452,
        377,
        266,
        21,
        304,
        273,
        278,
        350,
        20,
        337,
        284,
        312,
        495,
        271,
        341,
        62,
        134,
        66,
        446,
        215,
        111,
        188,
        458,
        214,
        63,
        240,
        4,
        440,
        169,
        15,
        225,
        335,
        395,
        173,
        34,
        360,
        465,
        361,
        22,
        372,
        52,
        310,
        108,
        315,
        437,
        43,
        374,
        460,
        65,
        263,
        314,
        396,
        229,
        378,
        193,
        122,
        132,
        466,
        269,
        142,
        394,
        292,
        368,
        29,
        430,
        121,
        457,
        212,
        116,
        456,
        75,
        90,
        441,
        293,
        414,
        308,
        482,
        204,
        32,
        302,
        123,
        150,
        112,
        180,
        348,
        167,
        146,
        254,
        340,
        8,
        189,
        381,
        151,
        190,
        427,
        450,
        354,
        187,
        274,
        203,
        470,
        53,
        207,
        83,
        384,
        246,
        415,
        342,
        436,
        211,
        444,
        449,
        397,
        351,
        64,
        70,
        69,
        353,
        330,
        135,
        393,
        200,
        339,
        260,
        462,
        228,
        230,
        403,
        60,
        473,
        316,
        276,
        155,
        459,
        11,
        323,
        488,
        262,
        391,
        38,
        131,
        183,
        95,
        443,
        476,
        474,
        392,
        343,
        334,
        110,
        126,
        59,
        138,
        104,
        33,
        92,
        73,
        125,
        490,
        88,
        107,
        3,
        37,
        442,
        429,
        120,
        140,
        82,
        27,
        86,
        170,
        176,
        434,
        387,
        149,
        349,
        422,
        307,
        232,
        303,
        85,
        300,
        362,
        44,
        115,
        217,
        376,
        369,
        84,
        298,
        259,
        317,
        471,
        0,
        177,
        453,
        289,
        161,
        461,
        245,
        492,
        389,
        96,
        408,
        438,
        402,
        253,
        35,
        109,
        77,
        100,
        98,
        279,
        41,
        285,
        175,
        413,
        364,
        248,
        306,
        244,
        412,
        51,
        197,
        281,
        498,
        464,
        68,
        255,
        76,
        352,
        221,
        305,
        409,
        326,
        336,
        250,
        249,
        467,
        94,
        24,
        159,
        487,
        268,
        370,
        178,
        148,
        301,
        469,
        172,
        71,
        239,
        130,
        31,
        145,
        61,
        201,
        280,
        36,
        332,
        243,
        275,
        168,
        287,
        416,
        286,
        179,
        383,
        309,
        375,
        237,
        26,
        160,
        154,
        79,
        344,
        10,
        355,
        80,
        13,
        234,
        327,
        238,
        182,
        186,
        400,
        143,
        219,
        485,
        30,
        56,
        174,
        119,
        270,
        47,
        163,
        282,
        468,
        192,
        210,
        494,
        447,
        49,
        205,
        433,
        101,
        448,
        220,
        231,
        288,
        247,
        439,
        324,
        23,
        42,
        25,
        9,
        347,
        420,
        198,
        366,
        404,
        55,
        390,
        496,
        222,
        299,
        1,
        410
    ],
    "Global Optimum": 0,
    "Algorithm": "Genetic algorithm",
    "Parameters": {
        "population": 30,
        "offspring": 30,
        "mutation probability": 0.002,
        "crossover probability": 0.9
    },
    "Fitness": 702803,
    "Solution": [
        328,
        99,
        133,
        158,
        296,
        208,
        363,
        209,
        318,
        486,
        103,
        261,
        28,
        290,
        185,
        213,
        128,
        147,
        357,
        406,
        2,
        233,
        411,
        477,
        407,
        345,
        346,
        475,
        385,
        419,
        386,
        489,
        478,
        124,
        319,
        484,
        144,
        454,
        194,
        16,
        57,
        136,
        294,
        451,
        380,
        311,
        89,
        48,
        14,
        87,
        264,
        40,
        379,
        91,
        365,
        331,
        236,
        481,
        19,
        445,
        171,
        405,
        257,
        426,
        382,
        199,
        191,
        428,
        421,
        252,
        39,
        491,
        226,
        272,
        493,
        58,
        127,
        157,
        399,
        388,
        216,
        499,
        72,
        322,
        67,
        325,
        258,
        46,
        277,
        162,
        472,
        283,
        12,
        424,
        156,
        431,
        358,
        202,
        241,
        338,
        5,
        18,
        463,
        50,
        45,
        321,
        356,
        206,
        223,
        251,
        139,
        398,
        227,
        6,
        256,
        224,
        432,
        329,
        242,
        195,
        164,
        54,
        165,
        114,
        367,
        7,
        78,
        196,
        137,
        97,
        184,
        166,
        267,
        497,
        181,
        418,
        235,
        265,
        105,
        373,
        153,
        480,
        295,
        93,
        117,
        141,
        106,
        423,
        425,
        483,
        417,
        479,
        152,
        129,
        401,
        118,
        359,
        455,
        297,
        333,
        218,
        102,
        313,
        17,
        81,
        113,
        320,
        371,
        291,
        74,
        435,
        452,
        377,
        266,
        21,
        304,
        273,
        278,
        350,
        20,
        337,
        284,
        312,
        495,
        271,
        341,
        62,
        134,
        66,
        446,
        215,
        111,
        188,
        458,
        214,
        63,
        240,
        4,
        440,
        169,
        15,
        225,
        335,
        395,
        173,
        34,
        360,
        465,
        361,
        22,
        372,
        52,
        310,
        108,
        315,
        437,
        43,
        374,
        460,
        65,
        263,
        314,
        396,
        229,
        378,
        193,
        122,
        132,
        466,
        269,
        142,
        394,
        292,
        368,
        29,
        430,
        121,
        457,
        212,
        116,
        456,
        75,
        90,
        441,
        293,
        414,
        308,
        482,
        204,
        32,
        302,
        123,
        150,
        112,
        180,
        348,
        167,
        146,
        254,
        340,
        8,
        189,
        381,
        151,
        190,
        427,
        450,
        354,
        187,
        274,
        203,
        470,
        53,
        207,
        83,
        384,
        246,
        415,
        342,
        436,
        211,
        444,
        449,
        397,
        351,
        64,
        70,
        69,
        353,
        330,
        135,
        393,
        200,
        339,
        260,
        462,
        228,
        230,
        403,
        60,
        473,
        316,
        276,
        155,
        459,
        11,
        323,
        488,
        262,
        391,
        38,
        131,
        183,
        95,
        443,
        476,
        474,
        392,
        343,
        334,
        110,
        126,
        59,
        138,
        104,
        33,
        92,
        73,
        125,
        490,
        88,
        107,
        3,
        37,
        442,
        429,
        120,
        140,
        82,
        27,
        86,
        170,
        176,
        434,
        387,
        149,
        349,
        422,
        307,
        232,
        303,
        85,
        300,
        362,
        44,
        115,
        217,
        376,
        369,
        84,
        298,
        259,
        317,
        471,
        0,
        177,
        453,
        289,
        161,
        461,
        245,
        492,
        389,
        96,
        408,
        438,
        402,
        253,
        35,
        109,
        77,
        100,
        98,
        279,
        41,
        285,
        175,
        413,
        364,
        248,
        306,
        244,
        412,
        51,
        197,
        281,
        498,
        464,
        68,
        255,
        76,
        352,
        221,
        305,
        409,
        326,
        336,
        250,
        249,
        467,
        94,
        24,
        159,
        487,
        268,
        370,
        178,
        148,
        301,
        469,
        172,
        71,
        239,
        130,
        31,
        145,
        61,
        201,
        280,
        36,
        332,
        243,
        275,
        168,
        287,
        416,
        286,
        179,
        383,
        309,
        375,
        237,
        26,
        160,
        154,
        79,
        344,
        10,
        355,
        80,
        13,
        234,
        327,
        238,
        182,
        186,
        400,
        143,
        219,
        485,
        30,
        56,
        174,
        119,
        270,
        47,
        163,
        282,
        468,
        192,
        210,
        494,
        447,
        49,
        205,
        433,
        101,
        448,
        220,
        231,
        288,
        247,
        439,
        324,
        23,
        42,
        25,
        9,
        347,
        420,
        198,
        366,
        404,
        55,
        390,
        496,
        222,
        299,
        1,
        410
    ],
    "Nb of functions evaluations": 50010,
    "Computational time in seconds": 425.2976131439209,
    "Stopping criterion in evaluations": 50000
}